Normalized Data/p10_6_normalized_splitx10_0.vrp
NAME:p10_6_NORMALIZED_splitx10_
BEST_KNOWN: 0
COMMENT: 0
DIMENSION: 808
CAPACITY: 1000
EDGE_WEIGHT_FORMAT: FUNCTION
EDGE_WEIGHT_TYPE: EXACT_2D
NODE_COORD_SECTION
1 0.00000 0.00000
2 12 38
3 12 38
4 12 38
5 12 38
6 12 38
7 -7 -14
8 -7 -14
9 -7 -14
10 -7 -14
11 -7 -14
12 -7 -14
13 -29 15
14 -29 15
15 -29 15
16 -29 15
17 -29 15
18 -29 15
19 -10 39
20 25 6
21 25 6
22 25 6
23 25 6
24 25 6
25 25 6
26 20 33
27 20 33
28 20 33
29 20 33
30 36 28
31 36 28
32 36 28
33 36 28
34 36 28
35 36 28
36 -33 0
37 -33 0
38 -33 0
39 7 -22
40 7 -22
41 7 -22
42 -27 36
43 -27 36
44 -27 36
45 -27 36
46 10 -1
47 10 -1
48 10 -1
49 10 -1
50 5 -33
51 5 -33
52 5 -33
53 5 -33
54 5 -33
55 -11 6
56 -11 6
57 -11 6
58 -11 6
59 -11 6
60 -11 6
61 -11 6
62 -4 -9
63 -4 -9
64 -4 -9
65 7 8
66 7 8
67 7 8
68 7 8
69 35 19
70 35 19
71 35 19
72 35 19
73 35 19
74 35 19
75 -13 19
76 -13 19
77 -13 19
78 -13 19
79 -13 19
80 -30 -32
81 -30 -32
82 -30 -32
83 -30 -32
84 -17 -50
85 -17 -50
86 -17 -50
87 -17 -50
88 -17 -50
89 -20 -38
90 -20 -38
91 -20 -38
92 -20 -38
93 -20 -38
94 -11 -19
95 -11 -19
96 -11 -19
97 -11 -19
98 -39 -49
99 -39 -49
100 6 31
101 6 31
102 6 31
103 6 31
104 43 12
105 43 12
106 43 12
107 43 12
108 43 12
109 43 12
110 48 9
111 48 9
112 48 9
113 48 9
114 8 36
115 8 36
116 8 36
117 23 -38
118 23 -38
119 23 -38
120 -3 -9
121 -3 -9
122 -17 28
123 -17 28
124 -17 28
125 -18 -41
126 -18 -41
127 -18 -41
128 -18 -41
129 38 12
130 38 12
131 38 12
132 -14 -2
133 -14 -2
134 -14 -2
135 -14 -2
136 -14 -2
137 36 -3
138 36 -3
139 36 -3
140 36 -3
141 36 -3
142 36 -3
143 24 40
144 24 40
145 -46 20
146 -46 20
147 -46 20
148 49 23
149 49 23
150 49 23
151 49 23
152 49 23
153 16 -22
154 16 -22
155 16 -22
156 41 -16
157 41 -16
158 41 -16
159 26 -30
160 26 -30
161 19 -47
162 19 -47
163 19 -47
164 19 -47
165 19 -47
166 19 -47
167 -42 -43
168 -42 -43
169 -42 -43
170 -42 -43
171 -12 30
172 -12 30
173 -12 30
174 -12 30
175 -12 30
176 -12 30
177 -12 30
178 49 11
179 49 11
180 49 11
181 49 11
182 -3 43
183 -3 43
184 -3 43
185 -3 43
186 -3 43
187 -3 43
188 -33 33
189 -33 33
190 -33 33
191 -33 33
192 32 -29
193 32 -29
194 32 -29
195 32 -29
196 32 -29
197 9 33
198 9 33
199 9 33
200 -47 15
201 -47 15
202 -47 15
203 -47 15
204 -47 15
205 28 -45
206 28 -45
207 18 43
208 18 43
209 18 43
210 18 43
211 46 -43
212 46 -43
213 46 -43
214 46 -43
215 13 20
216 13 20
217 13 20
218 13 20
219 -17 -19
220 -17 -19
221 -17 -19
222 -17 -19
223 -17 -19
224 29 50
225 29 50
226 29 50
227 29 50
228 6 47
229 6 47
230 6 47
231 6 47
232 42 -44
233 42 -44
234 42 -44
235 42 -44
236 37 -45
237 37 -45
238 44 25
239 44 25
240 44 25
241 -14 50
242 -14 50
243 -14 50
244 45 30
245 45 30
246 45 30
247 -42 45
248 -42 45
249 -42 45
250 26 -30
251 26 -30
252 26 -30
253 -36 36
254 -36 36
255 -36 36
256 37 -27
257 37 -27
258 37 -27
259 37 -27
260 37 -27
261 32 16
262 32 16
263 32 16
264 32 16
265 32 16
266 -32 -8
267 -32 -8
268 -32 -8
269 -32 -8
270 -32 -8
271 -32 -8
272 -32 -8
273 -42 -26
274 -42 -26
275 -42 -26
276 -42 -26
277 26 -31
278 26 -31
279 26 -31
280 26 -31
281 26 -31
282 3 -3
283 3 -3
284 3 -3
285 3 -3
286 3 -3
287 -20 -47
288 -20 -47
289 -20 -47
290 -20 -47
291 -20 -47
292 -44 -43
293 -44 -43
294 -44 -43
295 -44 -43
296 -44 -43
297 -44 -43
298 45 45
299 45 45
300 45 45
301 45 45
302 45 45
303 45 45
304 1 36
305 1 36
306 1 36
307 1 36
308 -14 -3
309 -14 -3
310 -27 -11
311 -27 -11
312 13 19
313 13 19
314 13 19
315 13 19
316 -16 -32
317 -16 -32
318 -16 -32
319 -16 -32
320 -16 -32
321 -16 -32
322 -4 -16
323 -4 -16
324 -4 -16
325 -4 -16
326 -4 -16
327 -4 -16
328 -13 -42
329 -13 -42
330 -13 -42
331 -26 27
332 -26 27
333 38 -21
334 38 -21
335 38 -21
336 38 -21
337 10 26
338 10 26
339 10 26
340 10 26
341 10 26
342 10 26
343 -35 36
344 -35 36
345 -35 36
346 -35 36
347 -35 36
348 40 7
349 40 7
350 40 7
351 -28 -5
352 -28 -5
353 -28 -5
354 -28 -5
355 -28 -5
356 -28 -5
357 -40 11
358 -40 11
359 -40 11
360 -40 11
361 -40 11
362 -40 11
363 -48 -32
364 -48 -32
365 -48 -32
366 -48 -32
367 -48 -32
368 2 43
369 2 43
370 2 43
371 2 43
372 -23 14
373 -23 14
374 -31 -5
375 -31 -5
376 -31 -5
377 -31 -5
378 -2 -9
379 -2 -9
380 -2 -9
381 -2 -9
382 -2 -9
383 -2 -9
384 38 2
385 38 2
386 38 2
387 34 -45
388 34 -45
389 34 -45
390 34 -45
391 -14 -7
392 -14 -7
393 -14 -7
394 -25 -40
395 -25 -40
396 -25 -40
397 -25 -40
398 -25 -40
399 18 -26
400 18 -26
401 18 -26
402 18 -26
403 -6 12
404 -6 12
405 -6 12
406 -16 -37
407 -16 -37
408 34 39
409 34 39
410 34 39
411 50 31
412 50 31
413 50 31
414 50 31
415 50 31
416 -37 39
417 -37 39
418 -37 39
419 14 -1
420 14 -1
421 14 -1
422 14 -1
423 14 -1
424 14 -1
425 20 -16
426 20 -16
427 -48 -47
428 24 16
429 24 16
430 -1 -43
431 -48 -25
432 -48 -25
433 -48 -25
434 -48 -25
435 -48 -25
436 -48 -25
437 -48 -25
438 -46 1
439 -46 1
440 -46 1
441 -46 1
442 14 -28
443 14 -28
444 14 -28
445 14 -28
446 14 -28
447 14 -28
448 14 -28
449 -15 -12
450 -15 -12
451 -15 -12
452 -34 14
453 -34 14
454 -34 14
455 -34 14
456 -8 -32
457 -8 -32
458 -8 -32
459 -8 -32
460 -8 -32
461 -8 -32
462 28 -35
463 28 -35
464 28 -35
465 28 -35
466 -35 32
467 -35 32
468 -35 32
469 -50 -45
470 -50 -45
471 -50 -45
472 -50 -45
473 -8 -45
474 -8 -45
475 -8 -45
476 -8 -45
477 -14 13
478 -14 13
479 -11 -12
480 -11 -12
481 -11 -12
482 24 -47
483 24 -47
484 24 -47
485 24 -47
486 24 -47
487 24 -47
488 -8 -9
489 -8 -9
490 -8 -9
491 -5 28
492 -5 28
493 -5 28
494 45 4
495 45 4
496 -15 -40
497 -15 -40
498 -15 -40
499 -15 -40
500 21 34
501 21 34
502 5 25
503 5 25
504 5 25
505 5 25
506 5 25
507 48 -29
508 48 -29
509 48 -29
510 48 -29
511 48 -29
512 -21 -3
513 -21 -3
514 -21 -3
515 -21 -3
516 -19 -10
517 -19 -10
518 -19 -10
519 -19 -10
520 -19 -10
521 -2 -48
522 22 -16
523 22 -16
524 22 -16
525 22 -16
526 -14 50
527 -14 50
528 -14 50
529 -14 50
530 -14 50
531 -46 -4
532 -46 -4
533 -46 -4
534 -46 -4
535 -46 -4
536 14 -47
537 14 -47
538 14 -47
539 14 -47
540 -49 -15
541 -49 -15
542 -49 -15
543 4 45
544 4 45
545 4 45
546 0 10
547 0 10
548 -19 28
549 -19 28
550 -19 28
551 -19 28
552 -19 28
553 -19 28
554 -19 28
555 -9 43
556 -9 43
557 -9 43
558 -9 43
559 -9 43
560 -9 43
561 -9 43
562 -24 50
563 -24 50
564 -24 50
565 -24 50
566 -24 50
567 47 46
568 47 46
569 47 46
570 47 46
571 28 -17
572 28 -17
573 28 -17
574 28 -17
575 28 -17
576 28 -17
577 -8 -38
578 -8 -38
579 -8 -38
580 44 -38
581 44 -38
582 44 -38
583 44 -38
584 38 -39
585 38 -39
586 38 -39
587 7 -49
588 7 -49
589 7 -49
590 7 -49
591 36 -23
592 36 -23
593 36 -23
594 17 -49
595 17 -49
596 17 -49
597 37 -45
598 37 -45
599 37 -45
600 37 -45
601 37 -45
602 -23 -40
603 -23 -40
604 -23 -40
605 -23 -40
606 -9 12
607 -9 12
608 -9 12
609 -9 12
610 -9 12
611 26 8
612 26 8
613 26 8
614 26 8
615 26 8
616 26 8
617 -41 -34
618 -41 -34
619 -41 -34
620 -41 -34
621 -41 -34
622 -3 47
623 -3 47
624 -3 47
625 13 9
626 13 9
627 13 9
628 13 9
629 13 9
630 13 9
631 -16 -39
632 -16 -39
633 -16 -39
634 3 -6
635 3 -6
636 3 -6
637 3 -6
638 2 -38
639 2 -38
640 34 -4
641 34 -4
642 48 -14
643 48 -14
644 48 -14
645 48 -14
646 48 -14
647 37 47
648 37 47
649 -24 -39
650 -24 -39
651 -24 -39
652 -24 -39
653 -44 -24
654 -44 -24
655 -44 -24
656 -44 -24
657 -44 -24
658 -44 -24
659 16 25
660 16 25
661 16 25
662 30 32
663 30 32
664 30 32
665 30 32
666 30 32
667 30 32
668 45 -7
669 45 -7
670 41 -43
671 41 -43
672 41 -43
673 41 -43
674 13 -44
675 13 -44
676 13 -44
677 13 -44
678 13 -44
679 -40 34
680 -40 34
681 -40 34
682 -40 34
683 -40 34
684 46 10
685 46 10
686 46 10
687 -28 -43
688 -28 -43
689 -28 -43
690 -28 17
691 -15 21
692 -15 21
693 -15 21
694 -15 21
695 50 -33
696 50 -33
697 50 -33
698 50 -33
699 50 -33
700 9 -50
701 9 -50
702 9 -50
703 9 -50
704 9 -50
705 9 -50
706 -45 20
707 -45 20
708 -45 20
709 -45 20
710 -45 20
711 -45 20
712 -45 20
713 -21 44
714 -21 44
715 -21 44
716 -21 44
717 -21 44
718 -21 44
719 -21 44
720 -50 29
721 -50 29
722 -50 29
723 -35 -18
724 -35 -18
725 -35 -18
726 -25 -7
727 -25 -7
728 -25 -7
729 -25 -7
730 16 -30
731 16 -30
732 16 -30
733 16 -30
734 -28 -2
735 -28 -2
736 -19 22
737 -19 22
738 -19 22
739 -19 22
740 -19 22
741 -37 -20
742 -37 -20
743 -37 -20
744 -37 -20
745 12 -32
746 12 -32
747 12 -32
748 12 -32
749 12 -32
750 12 -32
751 12 -32
752 3 -47
753 3 -47
754 28 38
755 28 38
756 28 38
757 37 32
758 37 32
759 37 32
760 37 32
761 -29 13
762 -29 13
763 -29 13
764 -29 13
765 -29 13
766 -29 13
767 -29 20
768 -29 20
769 -49 -44
770 -49 -44
771 -49 -44
772 44 22
773 44 22
774 44 22
775 44 22
776 44 22
777 -17 25
778 -17 25
779 -17 25
780 -17 25
781 -17 25
782 -17 25
783 33 -20
784 33 -20
785 33 -20
786 33 -20
787 -5 34
788 -42 -16
789 -42 -16
790 -42 -16
791 -42 -16
792 -42 -16
793 -42 -16
794 -15 -1
795 -15 -1
796 -15 -1
797 0 47
798 0 47
799 0 47
800 0 47
801 -48 46
802 -48 46
803 -48 46
804 -48 46
805 -48 46
806 -43 -41
807 -43 -41
808 -43 -41
DEMAND_SECTION
1 0
2 100
3 10
4 10
5 10
6 10
7 200
8 200
9 10
10 10
11 10
12 10
13 200
14 200
15 50
16 10
17 10
18 10
19 200
20 200
21 200
22 10
23 10
24 10
25 10
26 100
27 50
28 10
29 10
30 200
31 200
32 50
33 10
34 10
35 10
36 100
37 50
38 10
39 100
40 10
41 10
42 200
43 200
44 50
45 10
46 100
47 50
48 10
49 10
50 200
51 50
52 10
53 10
54 10
55 200
56 200
57 50
58 10
59 10
60 10
61 10
62 200
63 10
64 10
65 200
66 200
67 50
68 10
69 200
70 200
71 50
72 10
73 10
74 10
75 200
76 10
77 10
78 10
79 10
80 100
81 10
82 10
83 10
84 200
85 10
86 10
87 10
88 10
89 100
90 50
91 10
92 10
93 10
94 200
95 200
96 10
97 10
98 200
99 100
100 200
101 100
102 50
103 10
104 200
105 100
106 50
107 10
108 10
109 10
110 200
111 200
112 50
113 10
114 200
115 50
116 10
117 200
118 10
119 10
120 200
121 10
122 200
123 10
124 10
125 100
126 10
127 10
128 10
129 200
130 50
131 10
132 200
133 200
134 10
135 10
136 10
137 200
138 50
139 10
140 10
141 10
142 10
143 200
144 50
145 200
146 200
147 100
148 100
149 10
150 10
151 10
152 10
153 200
154 50
155 10
156 100
157 50
158 10
159 200
160 50
161 200
162 200
163 50
164 10
165 10
166 10
167 200
168 200
169 10
170 10
171 200
172 200
173 50
174 10
175 10
176 10
177 10
178 100
179 50
180 10
181 10
182 200
183 200
184 50
185 10
186 10
187 10
188 200
189 10
190 10
191 10
192 200
193 10
194 10
195 10
196 10
197 200
198 100
199 50
200 200
201 50
202 10
203 10
204 10
205 200
206 50
207 200
208 50
209 10
210 10
211 200
212 50
213 10
214 10
215 200
216 200
217 50
218 10
219 100
220 10
221 10
222 10
223 10
224 100
225 10
226 10
227 10
228 200
229 200
230 50
231 10
232 200
233 50
234 10
235 10
236 200
237 100
238 100
239 50
240 10
241 200
242 200
243 10
244 200
245 200
246 50
247 200
248 200
249 10
250 200
251 100
252 50
253 200
254 200
255 10
256 200
257 200
258 10
259 10
260 10
261 100
262 10
263 10
264 10
265 10
266 200
267 200
268 50
269 10
270 10
271 10
272 10
273 200
274 50
275 10
276 10
277 200
278 100
279 10
280 10
281 10
282 200
283 100
284 50
285 10
286 10
287 100
288 50
289 10
290 10
291 10
292 200
293 100
294 10
295 10
296 10
297 10
298 100
299 50
300 10
301 10
302 10
303 10
304 200
305 50
306 10
307 10
308 100
309 50
310 200
311 10
312 100
313 50
314 10
315 10
316 200
317 100
318 10
319 10
320 10
321 10
322 100
323 50
324 10
325 10
326 10
327 10
328 200
329 200
330 10
331 200
332 200
333 200
334 50
335 10
336 10
337 200
338 50
339 10
340 10
341 10
342 10
343 200
344 100
345 10
346 10
347 10
348 200
349 10
350 10
351 200
352 100
353 10
354 10
355 10
356 10
357 200
358 200
359 10
360 10
361 10
362 10
363 200
364 200
365 10
366 10
367 10
368 100
369 10
370 10
371 10
372 200
373 10
374 100
375 10
376 10
377 10
378 100
379 50
380 10
381 10
382 10
383 10
384 200
385 100
386 10
387 200
388 10
389 10
390 10
391 200
392 10
393 10
394 200
395 50
396 10
397 10
398 10
399 200
400 50
401 10
402 10
403 200
404 200
405 50
406 100
407 50
408 100
409 50
410 10
411 200
412 100
413 50
414 10
415 10
416 200
417 50
418 10
419 200
420 50
421 10
422 10
423 10
424 10
425 200
426 200
427 200
428 100
429 50
430 200
431 200
432 200
433 50
434 10
435 10
436 10
437 10
438 200
439 10
440 10
441 10
442 200
443 200
444 50
445 10
446 10
447 10
448 10
449 200
450 200
451 50
452 200
453 10
454 10
455 10
456 200
457 50
458 10
459 10
460 10
461 10
462 200
463 10
464 10
465 10
466 200
467 100
468 50
469 200
470 200
471 10
472 10
473 200
474 200
475 10
476 10
477 200
478 50
479 200
480 10
481 10
482 200
483 100
484 10
485 10
486 10
487 10
488 200
489 200
490 10
491 200
492 50
493 10
494 200
495 10
496 100
497 50
498 10
499 10
500 100
501 50
502 200
503 10
504 10
505 10
506 10
507 200
508 100
509 10
510 10
511 10
512 200
513 100
514 10
515 10
516 100
517 50
518 10
519 10
520 10
521 200
522 200
523 100
524 10
525 10
526 200
527 100
528 50
529 10
530 10
531 200
532 100
533 50
534 10
535 10
536 200
537 50
538 10
539 10
540 100
541 50
542 10
543 100
544 10
545 10
546 100
547 50
548 200
549 100
550 50
551 10
552 10
553 10
554 10
555 200
556 200
557 50
558 10
559 10
560 10
561 10
562 200
563 200
564 50
565 10
566 10
567 100
568 50
569 10
570 10
571 200
572 200
573 50
574 10
575 10
576 10
577 200
578 100
579 10
580 200
581 50
582 10
583 10
584 200
585 200
586 100
587 200
588 50
589 10
590 10
591 200
592 100
593 10
594 200
595 200
596 10
597 200
598 200
599 50
600 10
601 10
602 200
603 100
604 50
605 10
606 200
607 100
608 50
609 10
610 10
611 200
612 200
613 10
614 10
615 10
616 10
617 200
618 200
619 50
620 10
621 10
622 200
623 100
624 10
625 200
626 100
627 10
628 10
629 10
630 10
631 200
632 100
633 50
634 100
635 10
636 10
637 10
638 100
639 50
640 200
641 10
642 100
643 50
644 10
645 10
646 10
647 200
648 200
649 200
650 200
651 10
652 10
653 100
654 50
655 10
656 10
657 10
658 10
659 200
660 10
661 10
662 200
663 200
664 10
665 10
666 10
667 10
668 200
669 100
670 200
671 100
672 10
673 10
674 100
675 10
676 10
677 10
678 10
679 200
680 50
681 10
682 10
683 10
684 200
685 10
686 10
687 200
688 200
689 50
690 200
691 200
692 10
693 10
694 10
695 200
696 100
697 10
698 10
699 10
700 100
701 50
702 10
703 10
704 10
705 10
706 200
707 100
708 50
709 10
710 10
711 10
712 10
713 200
714 100
715 50
716 10
717 10
718 10
719 10
720 200
721 50
722 10
723 200
724 100
725 50
726 200
727 100
728 10
729 10
730 200
731 10
732 10
733 10
734 200
735 100
736 200
737 100
738 10
739 10
740 10
741 200
742 50
743 10
744 10
745 200
746 200
747 50
748 10
749 10
750 10
751 10
752 200
753 50
754 100
755 10
756 10
757 200
758 200
759 50
760 10
761 200
762 200
763 50
764 10
765 10
766 10
767 200
768 200
769 200
770 200
771 100
772 200
773 10
774 10
775 10
776 10
777 200
778 100
779 10
780 10
781 10
782 10
783 100
784 50
785 10
786 10
787 200
788 200
789 200
790 10
791 10
792 10
793 10
794 200
795 10
796 10
797 100
798 50
799 10
800 10
801 200
802 100
803 50
804 10
805 10
806 200
807 100
808 10
DEPOT_SECTION
1
-1
EOF