Normalized Data/p10_6_normalized_splitx10_0.sol
807 -8 10 6 9 7 11 93 96 95 94 326 321 323 325 324 -18 528 527 242 241 526 525 240 529 557 559 -22 24 107 105 108 106 684 685 683 180 178 179 177 111 110 109 112 421 423 -25 499 754 755 753 408 409 407 758 756 757 759 32 73 72 612 614 -26 28 27 209 208 207 206 142 662 665 661 663 664 666 -31 29 33 30 34 237 238 239 771 71 70 263 260 -37 36 35 438 440 439 437 532 534 531 530 533 539 541 540 269 270 308 -38 442 441 443 398 153 152 -40 39 538 537 535 703 702 699 700 704 701 589 586 588 587 752 751 638 -46 48 45 639 137 140 136 138 383 384 385 422 419 -47 418 420 19 20 21 23 626 625 628 629 627 624 -53 49 51 52 50 746 744 748 745 750 747 749 729 730 732 731 -57 55 54 56 59 58 60 -64 67 65 314 312 311 313 214 215 -66 216 217 660 659 658 341 337 336 339 340 338 101 99 102 100 -76 78 75 77 74 691 690 692 693 776 737 735 736 739 738 -79 80 81 82 617 616 620 366 362 363 365 364 275 -90 89 92 91 88 602 393 396 395 394 397 649 651 650 648 -118 116 117 204 205 482 483 481 486 484 485 676 673 677 674 675 -129 128 130 104 103 493 494 347 348 349 -134 131 135 133 132 511 512 513 514 793 794 795 -146 144 145 708 706 710 707 711 709 705 -154 399 400 401 159 669 672 671 670 233 231 232 234 213 210 212 211 -167 166 292 291 806 805 -176 172 175 174 173 170 171 123 121 122 547 549 -184 185 182 186 183 181 621 622 623 797 796 798 799 -188 187 189 190 254 252 253 467 466 465 -191 192 194 195 193 585 584 583 462 461 463 464 -197 198 196 4 5 1 3 2 113 115 114 502 501 505 504 503 -221 222 219 220 218 601 603 604 290 289 286 287 288 85 87 83 86 84 125 126 124 127 406 -229 227 230 228 543 542 544 367 369 370 368 306 305 303 304 -245 243 244 412 413 414 410 411 151 148 149 147 150 775 772 773 774 -249 158 250 251 280 277 276 278 279 633 634 635 -255 257 258 259 256 590 784 785 783 782 571 -274 273 272 434 431 436 432 430 435 433 654 653 656 657 652 655 741 742 -281 284 -282 285 -283 -294 296 469 468 470 471 768 770 769 619 618 -299 298 302 300 301 297 568 569 566 567 647 646 223 225 226 224 143 500 -307 391 390 392 450 448 449 478 480 479 -316 318 317 319 320 315 405 631 632 630 495 497 498 496 379 380 382 -322 460 457 458 472 475 473 474 520 429 637 -328 329 327 578 577 576 455 456 459 -331 330 42 41 43 44 550 548 552 551 553 -333 508 507 509 510 506 698 697 694 695 696 581 582 579 580 -342 344 345 415 681 678 679 680 682 720 719 721 -346 343 416 417 248 247 246 803 801 804 800 802 477 -361 358 359 357 356 360 201 200 199 203 202 451 453 454 452 -371 689 767 766 476 -372 12 17 16 14 13 15 761 762 764 763 765 760 -376 375 373 374 266 267 265 271 268 310 309 515 516 518 519 517 -378 381 377 119 120 61 63 62 488 487 489 -389 388 387 386 596 598 236 235 600 599 597 -424 425 523 521 522 524 572 575 574 573 570 -428 427 69 68 264 261 262 615 611 610 613 -492 491 490 558 560 556 554 555 786 -536 595 594 593 165 162 161 160 164 163 447 446 445 444 636 -545 546 403 404 402 606 605 608 609 607 -592 591 332 334 335 157 156 155 643 644 641 642 645 668 667 141 139 640 -688 686 687 98 97 426 295 293 169 168 807 -715 713 712 718 717 714 716 563 564 562 565 561 777 778 781 779 780 -722 724 723 740 743 790 791 789 787 788 792 -728 727 726 725 352 354 351 350 355 353 734 733 0 





OBJ=
5663.372
BEST_KNOWN=
0.000